NAME: cum210.tsp
TYPE: TSP
COMMENT: User-generated TSP file
DIMENSION: 210
EDGE_WEIGHT_TYPE: EUC_2D
NODE_COORD_SECTION
1 109.0 139.0
2 147.0 78.0
3 34.0 196.0
4 15.0 39.0
5 131.0 196.0
6 181.0 164.0
7 93.0 65.0
8 138.0 87.0
9 175.0 133.0
10 196.0 34.0
11 23.0 68.0
12 178.0 103.0
13 22.0 155.0
14 15.0 68.0
15 5.0 99.0
16 81.0 190.0
17 182.0 97.0
18 133.0 45.0
19 170.0 27.0
20 166.0 102.0
21 108.0 80.0
22 28.0 64.0
23 172.0 135.0
24 195.0 142.0
25 105.0 14.0
26 186.0 89.0
27 173.0 114.0
28 4.0 195.0
29 123.0 85.0
30 76.0 192.0
31 11.0 210.0
32 34.0 100.0
33 168.0 113.0
34 156.0 111.0
35 42.0 145.0
36 141.0 84.0
37 88.0 31.0
38 200.0 62.0
39 92.0 173.0
40 171.0 175.0
41 33.0 82.0
42 110.0 111.0
43 46.0 47.0
44 158.0 206.0
45 192.0 12.0
46 163.0 90.0
47 195.0 156.0
48 111.0 18.0
49 113.0 153.0
50 157.0 210.0
51 39.0 47.0
52 7.0 165.0
53 36.0 198.0
54 32.0 195.0
55 83.0 177.0
56 156.0 173.0
57 209.0 40.0
58 123.0 4.0
59 152.0 15.0
60 30.0 170.0
61 69.0 91.0
62 76.0 20.0
63 54.0 79.0
64 22.0 110.0
65 53.0 75.0
66 130.0 91.0
67 171.0 51.0
68 144.0 102.0
69 203.0 107.0
70 60.0 17.0
71 43.0 205.0
72 10.0 209.0
73 141.0 55.0
74 47.0 198.0
75 152.0 141.0
76 204.0 94.0
77 58.0 183.0
78 185.0 37.0
79 135.0 25.0
80 99.0 140.0
81 175.0 162.0
82 80.0 112.0
83 71.0 155.0
84 200.0 5.0
85 161.0 162.0
86 150.0 81.0
87 91.0 128.0
88 46.0 113.0
89 109.0 145.0
90 20.0 31.0
91 185.0 62.0
92 54.0 3.0
93 40.0 75.0
94 190.0 9.0
95 49.0 135.0
96 45.0 52.0
97 152.0 47.0
98 82.0 25.0
99 206.0 175.0
100 72.0 179.0
101 104.0 144.0
102 88.0 172.0
103 154.0 36.0
104 83.0 109.0
105 199.0 200.0
106 159.0 149.0
107 188.0 157.0
108 55.0 145.0
109 38.0 45.0
110 35.0 63.0
111 192.0 158.0
112 196.0 52.0
113 9.0 141.0
114 36.0 32.0
115 92.0 151.0
116 155.0 53.0
117 76.0 124.0
118 73.0 141.0
119 86.0 197.0
120 21.0 200.0
121 20.0 35.0
122 189.0 29.0
123 103.0 190.0
124 11.0 102.0
125 125.0 154.0
126 109.0 198.0
127 185.0 111.0
128 89.0 104.0
129 106.0 141.0
130 13.0 79.0
131 66.0 141.0
132 122.0 169.0
133 18.0 39.0
134 55.0 170.0
135 182.0 100.0
136 155.0 76.0
137 172.0 9.0
138 144.0 93.0
139 128.0 113.0
140 105.0 104.0
141 47.0 13.0
142 20.0 183.0
143 174.0 87.0
144 58.0 117.0
145 60.0 134.0
146 98.0 121.0
147 160.0 51.0
148 103.0 64.0
149 49.0 61.0
150 160.0 181.0
151 5.0 75.0
152 87.0 169.0
153 206.0 172.0
154 41.0 63.0
155 111.0 75.0
156 129.0 209.0
157 210.0 34.0
158 67.0 185.0
159 70.0 153.0
160 58.0 53.0
161 207.0 70.0
162 59.0 32.0
163 184.0 210.0
164 90.0 169.0
165 97.0 176.0
166 72.0 79.0
167 147.0 5.0
168 113.0 9.0
169 7.0 24.0
170 107.0 153.0
171 12.0 204.0
172 18.0 111.0
173 2.0 26.0
174 80.0 184.0
175 3.0 11.0
176 185.0 201.0
177 120.0 158.0
178 103.0 81.0
179 72.0 68.0
180 61.0 183.0
181 180.0 116.0
182 195.0 7.0
183 200.0 92.0
184 23.0 163.0
185 27.0 117.0
186 34.0 41.0
187 105.0 110.0
188 58.0 201.0
189 84.0 154.0
190 5.0 154.0
191 37.0 175.0
192 39.0 180.0
193 39.0 12.0
194 148.0 208.0
195 13.0 107.0
196 149.0 52.0
197 11.0 50.0
198 183.0 105.0
199 181.0 112.0
200 26.0 25.0
201 160.0 91.0
202 168.0 37.0
203 188.0 145.0
204 162.0 58.0
205 98.0 62.0
206 79.0 168.0
207 157.0 128.0
208 135.0 210.0
209 129.0 50.0
210 208.0 173.0
EOF





